
n_res = 4;
rcap = [35, 38, 1175, 1181];
rtype = [1, 1, 2, 2];
n_tasks = 100;
modes =  [{1, 2, 3, 4, 5, 6}, {7, 8, 9, 10, 11, 12}, {13, 14, 15, 16, 17, 18}, {19, 20, 21, 22, 23, 24}, {25, 26, 27, 28, 29, 30}, {31, 32, 33, 34, 35, 36}, {37, 38, 39, 40, 41, 42}, {43, 44, 45, 46, 47, 48}, {49, 50, 51, 52, 53, 54}, {55, 56, 57, 58, 59, 60}, {61, 62, 63, 64, 65, 66}, {67, 68, 69, 70, 71, 72}, {73, 74, 75, 76, 77, 78}, {79, 80, 81, 82, 83, 84}, {85, 86, 87, 88, 89, 90}, {91, 92, 93, 94, 95, 96}, {97, 98, 99, 100, 101, 102}, {103, 104, 105, 106, 107, 108}, {109, 110, 111, 112, 113, 114}, {115, 116, 117, 118, 119, 120}, {121, 122, 123, 124, 125, 126}, {127, 128, 129, 130, 131, 132}, {133, 134, 135, 136, 137, 138}, {139, 140, 141, 142, 143, 144}, {145, 146, 147, 148, 149, 150}, {151, 152, 153, 154, 155, 156}, {157, 158, 159, 160, 161, 162}, {163, 164, 165, 166, 167, 168}, {169, 170, 171, 172, 173, 174}, {175, 176, 177, 178, 179, 180}, {181, 182, 183, 184, 185, 186}, {187, 188, 189, 190, 191, 192}, {193, 194, 195, 196, 197, 198}, {199, 200, 201, 202, 203, 204}, {205, 206, 207, 208, 209, 210}, {211, 212, 213, 214, 215, 216}, {217, 218, 219, 220, 221, 222}, {223, 224, 225, 226, 227, 228}, {229, 230, 231, 232, 233, 234}, {235, 236, 237, 238, 239, 240}, {241, 242, 243, 244, 245, 246}, {247, 248, 249, 250, 251, 252}, {253, 254, 255, 256, 257, 258}, {259, 260, 261, 262, 263, 264}, {265, 266, 267, 268, 269, 270}, {271, 272, 273, 274, 275, 276}, {277, 278, 279, 280, 281, 282}, {283, 284, 285, 286, 287, 288}, {289, 290, 291, 292, 293, 294}, {295, 296, 297, 298, 299, 300}, {301, 302, 303, 304, 305, 306}, {307, 308, 309, 310, 311, 312}, {313, 314, 315, 316, 317, 318}, {319, 320, 321, 322, 323, 324}, {325, 326, 327, 328, 329, 330}, {331, 332, 333, 334, 335, 336}, {337, 338, 339, 340, 341, 342}, {343, 344, 345, 346, 347, 348}, {349, 350, 351, 352, 353, 354}, {355, 356, 357, 358, 359, 360}, {361, 362, 363, 364, 365, 366}, {367, 368, 369, 370, 371, 372}, {373, 374, 375, 376, 377, 378}, {379, 380, 381, 382, 383, 384}, {385, 386, 387, 388, 389, 390}, {391, 392, 393, 394, 395, 396}, {397, 398, 399, 400, 401, 402}, {403, 404, 405, 406, 407, 408}, {409, 410, 411, 412, 413, 414}, {415, 416, 417, 418, 419, 420}, {421, 422, 423, 424, 425, 426}, {427, 428, 429, 430, 431, 432}, {433, 434, 435, 436, 437, 438}, {439, 440, 441, 442, 443, 444}, {445, 446, 447, 448, 449, 450}, {451, 452, 453, 454, 455, 456}, {457, 458, 459, 460, 461, 462}, {463, 464, 465, 466, 467, 468}, {469, 470, 471, 472, 473, 474}, {475, 476, 477, 478, 479, 480}, {481, 482, 483, 484, 485, 486}, {487, 488, 489, 490, 491, 492}, {493, 494, 495, 496, 497, 498}, {499, 500, 501, 502, 503, 504}, {505, 506, 507, 508, 509, 510}, {511, 512, 513, 514, 515, 516}, {517, 518, 519, 520, 521, 522}, {523, 524, 525, 526, 527, 528}, {529, 530, 531, 532, 533, 534}, {535, 536, 537, 538, 539, 540}, {541, 542, 543, 544, 545, 546}, {547, 548, 549, 550, 551, 552}, {553, 554, 555, 556, 557, 558}, {559, 560, 561, 562, 563, 564}, {565, 566, 567, 568, 569, 570}, {571, 572, 573, 574, 575, 576}, {577, 578, 579, 580, 581, 582}, {583, 584, 585, 586, 587, 588}, {589, 590, 591, 592, 593, 594}, {595, 596, 597, 598, 599, 600}];
succ =  [{47, 43, 42, 38, 36, 35, 33, 26, 23, 8}, {47, 42, 33, 31, 30, 29, 28, 27, 26, 23, 19}, {50, 42, 38, 36, 35, 34, 30, 29, 26, 24, 11}, {40, 37, 30, 28, 27, 22, 20}, {57, 53, 47, 44, 40, 39, 38, 37, 36, 35, 34, 33, 30, 28}, {53, 50, 49, 47, 44, 39, 35, 34, 33, 30, 28, 26}, {55, 53, 51, 47, 41, 40, 37, 33, 27, 25}, {53, 51, 48, 44, 40, 39, 37, 32, 30, 25}, {57, 56, 54, 50, 40, 37, 36, 28, 21}, {55, 53, 47, 36, 34, 27, 26}, {86, 64, 60, 59, 58, 57, 55, 53, 52, 51, 49, 48, 47, 45, 43, 41, 40, 39, 37}, {57, 56, 54, 43, 41, 37, 36, 21}, {59, 53, 51, 49, 47, 44, 39, 37, 33, 30}, {60, 59, 57, 55, 53, 47, 39, 36, 33, 27}, {60, 53, 45, 41, 40, 39, 37, 36, 27}, {53, 51, 48, 45, 37, 30, 28, 27}, {60, 59, 57, 55, 53, 50, 46, 41, 40, 34, 33}, {86, 64, 57, 50, 47, 42, 39, 36, 28}, {64, 60, 59, 58, 55, 53, 50, 49, 43, 41, 39, 37}, {67, 64, 61, 59, 57, 49, 47, 46, 39, 36, 33}, {72, 68, 67, 66, 65, 64, 63, 62, 60, 59, 58, 55, 53, 51, 49, 48, 45, 44}, {74, 65, 64, 61, 59, 58, 57, 56, 55, 54, 53, 52, 51, 49, 46, 45, 41}, {64, 63, 62, 58, 55, 51, 49, 37, 32}, {68, 66, 61, 60, 56, 55, 51, 49, 41, 33}, {86, 74, 72, 71, 68, 66, 65, 64, 63, 62, 61, 60, 59, 58, 57, 56, 54, 50, 49, 45}, {98, 86, 76, 74, 73, 71, 70, 69, 68, 66, 65, 61, 60, 59, 58, 57, 54, 51, 41}, {76, 73, 72, 68, 67, 66, 65, 64, 62, 58, 54, 52, 50, 49, 44}, {98, 76, 74, 73, 71, 70, 69, 68, 66, 65, 61, 60, 59, 58, 41}, {99, 86, 74, 72, 65, 64, 63, 62, 61, 58, 57, 49, 46, 45}, {74, 73, 70, 65, 64, 60, 55, 54, 46, 41}, {99, 76, 74, 73, 71, 68, 67, 66, 65, 64, 62, 61, 60, 49}, {98, 85, 83, 73, 72, 71, 69, 68, 66, 65, 60, 57, 56, 54}, {98, 86, 76, 71, 69, 65, 63, 58, 52, 48}, {99, 98, 86, 85, 84, 78, 71, 66, 64, 61, 56, 45}, {98, 97, 86, 85, 76, 75, 72, 71, 67, 61, 60, 48}, {100, 98, 85, 78, 76, 72, 71, 66, 52, 51, 48}, {100, 98, 97, 85, 78, 76, 75, 74, 73, 67, 66, 65, 61, 46}, {76, 68, 67, 66, 65, 64, 63, 51, 49}, {98, 85, 74, 73, 71, 70, 69, 66, 56, 54}, {99, 98, 96, 84, 82, 78, 75, 72, 71, 70, 69, 65, 63, 62}, {99, 96, 91, 84, 83, 82, 78, 77, 75, 72, 67, 63, 62}, {98, 96, 95, 82, 78, 77, 75, 72, 71, 70, 68, 63}, {99, 98, 97, 95, 94, 92, 84, 83, 78, 77, 76, 74, 72, 71, 61}, {97, 95, 86, 85, 83, 77, 74, 71, 69, 61}, {100, 97, 95, 94, 93, 90, 82, 80, 77, 76, 75, 73, 70}, {96, 95, 94, 92, 91, 90, 83, 82, 81, 77, 71, 68}, {95, 94, 93, 91, 84, 82, 81, 80, 77, 75, 73, 72}, {99, 95, 94, 93, 90, 84, 81, 77, 74, 73, 70}, {100, 98, 95, 94, 93, 85, 82, 81, 80, 75, 70}, {99, 98, 95, 93, 91, 85, 84, 83, 82, 81, 80}, {99, 96, 95, 93, 92, 91, 90, 88, 82, 80, 77}, {99, 97, 95, 93, 91, 90, 88, 82, 80, 79, 75}, {98, 97, 95, 94, 91, 90, 82, 79, 76, 75}, {100, 99, 95, 92, 91, 90, 88, 81, 80, 77}, {98, 96, 93, 91, 83, 82, 81, 80, 79, 76}, {97, 94, 93, 91, 90, 82, 79, 76, 75}, {96, 94, 93, 91, 90, 84, 81, 80, 77}, {95, 94, 90, 88, 87, 80, 78, 75}, {96, 94, 92, 90, 88, 81, 80, 77}, {94, 93, 90, 84, 80, 79, 78}, {93, 91, 90, 88, 81, 80, 79}, {97, 95, 92, 90, 81, 80, 79}, {100, 97, 93, 92, 88, 87, 85}, {97, 94, 92, 91, 88, 77}, {95, 91, 90, 81, 79}, {94, 90, 88, 87, 80}, {94, 88, 80, 79}, {87, 84, 80}, {94, 92, 91, 89}, {91, 87, 83}, {93, 89, 88}, {90, 88, 87}, {96, 79}, {96, 82}, {92, 89}, {88, 87}, {79}, {81}, {87}, {89}, {89}, {87}, {88}, {88}, {90}, {90}, {}, {}, {}, {}, {}, {}, {}, {}, {}, {}, {}, {}, {}, {}];
n_opt = 600;
dur = [5, 8, 11, 14, 17, 20, 3, 4, 5, 14, 16, 19, 1, 2, 3, 7, 16, 20, 1, 4, 7, 13, 16, 18, 2, 3, 8, 9, 10, 20, 3, 4, 6, 12, 16, 20, 1, 7, 8, 16, 18, 20, 8, 9, 12, 15, 16, 17, 3, 4, 9, 10, 14, 20, 4, 5, 11, 13, 14, 18, 1, 4, 9, 10, 11, 12, 2, 8, 16, 17, 18, 19, 1, 5, 6, 11, 12, 19, 3, 16, 17, 18, 19, 20, 2, 3, 6, 10, 15, 16, 4, 5, 12, 13, 15, 17, 2, 7, 12, 14, 18, 19, 4, 5, 6, 7, 11, 15, 7, 14, 17, 18, 19, 20, 5, 9, 13, 15, 17, 20, 3, 4, 6, 7, 10, 12, 4, 8, 12, 15, 17, 19, 4, 5, 10, 14, 19, 20, 1, 4, 5, 9, 16, 20, 5, 6, 13, 14, 15, 19, 1, 2, 3, 4, 12, 17, 2, 4, 8, 10, 17, 20, 7, 9, 10, 11, 12, 20, 5, 13, 14, 16, 18, 19, 2, 3, 4, 11, 16, 17, 5, 7, 10, 16, 17, 20, 1, 3, 6, 8, 13, 14, 6, 14, 15, 17, 18, 20, 1, 2, 3, 6, 10, 16, 1, 8, 9, 15, 16, 18, 2, 3, 6, 8, 15, 18, 2, 4, 6, 10, 15, 19, 1, 4, 5, 6, 13, 16, 2, 10, 13, 15, 16, 20, 5, 6, 10, 13, 14, 16, 1, 11, 12, 14, 18, 20, 8, 11, 12, 13, 18, 20, 2, 8, 10, 13, 18, 19, 1, 2, 10, 14, 15, 20, 6, 7, 9, 15, 16, 17, 3, 4, 7, 8, 12, 19, 3, 7, 8, 14, 17, 18, 1, 9, 10, 12, 14, 20, 1, 5, 6, 13, 16, 18, 5, 8, 9, 10, 14, 15, 2, 5, 6, 10, 16, 19, 4, 5, 6, 13, 18, 19, 1, 11, 12, 14, 17, 20, 3, 6, 7, 8, 10, 19, 4, 6, 17, 18, 19, 20, 3, 6, 16, 17, 19, 20, 1, 2, 3, 4, 7, 20, 1, 10, 15, 19, 19, 20, 3, 8, 9, 15, 16, 18, 2, 5, 7, 15, 16, 20, 1, 7, 9, 15, 17, 19, 1, 2, 3, 6, 7, 19, 5, 7, 13, 14, 16, 20, 6, 7, 8, 9, 14, 16, 1, 3, 8, 10, 14, 20, 1, 2, 3, 5, 11, 13, 1, 2, 6, 9, 14, 15, 4, 6, 9, 17, 18, 19, 4, 5, 6, 12, 17, 18, 4, 5, 6, 8, 15, 19, 1, 4, 9, 12, 19, 20, 1, 2, 8, 9, 12, 15, 4, 5, 6, 13, 14, 20, 3, 7, 11, 13, 14, 16, 10, 11, 12, 15, 19, 20, 2, 3, 4, 10, 12, 19, 1, 2, 3, 4, 18, 20, 1, 3, 4, 13, 15, 17, 2, 6, 7, 8, 15, 19, 2, 7, 13, 18, 19, 20, 4, 8, 9, 10, 14, 18, 3, 4, 5, 8, 9, 10, 1, 2, 3, 8, 14, 19, 2, 3, 5, 7, 11, 17, 3, 5, 8, 9, 17, 18, 1, 8, 10, 17, 18, 19, 7, 8, 11, 12, 13, 15, 2, 4, 6, 8, 15, 19, 2, 4, 9, 10, 13, 19, 2, 3, 5, 6, 12, 16, 5, 9, 10, 14, 15, 16, 5, 8, 13, 16, 17, 19, 3, 6, 10, 12, 14, 16, 2, 3, 7, 16, 19, 20, 3, 9, 13, 15, 16, 17, 1, 11, 15, 16, 17, 20, 3, 5, 6, 7, 14, 18, 2, 12, 14, 17, 18, 19, 2, 7, 12, 13, 16, 20, 3, 5, 7, 8, 12, 13];
rreq = [|2, 2, 2, 2, 2, 2, 2, 2, 2, 2, 2, 2, 3, 2, 2, 2, 2, 2, 2, 1, 1, 1, 1, 1, 2, 2, 2, 2, 2, 2, 4, 4, 4, 3, 3, 2, 4, 4, 4, 4, 3, 3, 2, 2, 2, 2, 2, 2, 5, 5, 5, 5, 5, 5, 5, 5, 5, 5, 5, 5, 5, 4, 4, 3, 3, 3, 2, 2, 2, 2, 1, 1, 4, 3, 3, 3, 3, 3, 3, 2, 2, 2, 1, 1, 4, 4, 3, 2, 1, 1, 3, 3, 3, 3, 3, 3, 2, 1, 1, 1, 1, 1, 2, 1, 1, 1, 1, 1, 2, 1, 1, 1, 1, 1, 3, 3, 3, 2, 1, 1, 3, 3, 3, 3, 2, 2, 4, 3, 3, 3, 3, 3, 4, 4, 4, 3, 2, 2, 5, 5, 5, 5, 5, 5, 5, 5, 5, 5, 5, 5, 5, 4, 4, 3, 3, 3, 3, 2, 2, 1, 1, 1, 1, 1, 1, 1, 1, 1, 3, 3, 3, 3, 3, 3, 5, 4, 4, 4, 4, 4, 5, 4, 4, 4, 4, 4, 2, 2, 2, 1, 1, 1, 3, 3, 2, 2, 2, 1, 4, 3, 3, 2, 1, 1, 3, 3, 3, 3, 3, 3, 1, 1, 1, 1, 1, 1, 4, 3, 2, 2, 1, 1, 5, 4, 4, 4, 4, 4, 3, 3, 3, 3, 3, 3, 1, 1, 1, 1, 1, 1, 5, 4, 3, 2, 1, 1, 5, 5, 5, 5, 5, 5, 4, 3, 3, 3, 3, 3, 2, 2, 2, 2, 2, 2, 2, 2, 2, 1, 1, 1, 4, 4, 3, 3, 2, 2, 5, 4, 4, 4, 3, 3, 5, 4, 4, 4, 4, 4, 1, 1, 1, 1, 1, 1, 5, 5, 5, 5, 5, 5, 4, 4, 4, 4, 4, 4, 3, 2, 2, 2, 2, 2, 3, 2, 2, 1, 1, 1, 3, 2, 2, 1, 1, 1, 4, 4, 4, 4, 4, 4, 4, 3, 2, 2, 2, 1, 2, 2, 2, 2, 2, 2, 3, 2, 2, 2, 2, 2, 1, 1, 1, 1, 1, 1, 3, 3, 3, 3, 3, 3, 3, 2, 2, 2, 2, 2, 3, 3, 3, 3, 3, 3, 5, 4, 4, 3, 3, 3, 5, 5, 5, 5, 5, 5, 5, 4, 4, 4, 4, 4, 3, 3, 2, 2, 2, 1, 3, 2, 2, 2, 2, 2, 3, 2, 2, 2, 2, 2, 4, 4, 4, 3, 3, 2, 3, 3, 3, 3, 3, 3, 3, 3, 3, 3, 3, 3, 1, 1, 1, 1, 1, 1, 5, 4, 4, 4, 4, 4, 4, 4, 4, 4, 4, 4, 1, 1, 1, 1, 1, 1, 3, 2, 2, 1, 1, 1, 3, 3, 3, 2, 2, 1, 3, 3, 3, 3, 3, 3, 3, 2, 2, 2, 2, 2, 3, 2, 2, 2, 2, 2, 4, 3, 3, 2, 2, 2, 2, 1, 1, 1, 1, 1, 3, 2, 2, 2, 2, 2, 3, 3, 2, 2, 1, 1, 2, 2, 2, 2, 2, 2, 3, 3, 2, 2, 1, 1, 4, 3, 3, 3, 2, 1, 3, 3, 3, 3, 3, 3, 1, 1, 1, 1, 1, 1, 3, 2, 2, 1, 1, 1, 3, 3, 3, 3, 3, 3, 4, 4, 4, 4, 4, 4, 5, 4, 4, 3, 3, 3, 3, 3, 3, 2, 1, 1, 3, 3, 3, 2, 2, 2, 2, 1, 1, 1, 1, 1, 5, 5, 5, 5, 5, 5, 5, 4, 3, 3, 3, 2, 4, 4, 4, 4, 3, 3, 4, 4, 3, 2, 1, 1
 |4, 4, 4, 3, 3, 3, 2, 2, 2, 2, 2, 2, 5, 4, 4, 3, 3, 3, 2, 2, 2, 2, 2, 2, 5, 4, 3, 2, 2, 1, 3, 3, 3, 3, 2, 2, 3, 2, 2, 2, 2, 2, 3, 3, 3, 3, 3, 3, 5, 4, 3, 2, 2, 1, 5, 5, 5, 5, 5, 5, 3, 3, 3, 2, 2, 2, 5, 5, 5, 5, 5, 5, 4, 4, 4, 3, 3, 3, 4, 4, 4, 3, 2, 2, 5, 3, 3, 2, 2, 1, 4, 4, 4, 4, 4, 4, 2, 2, 2, 2, 2, 2, 3, 3, 2, 2, 2, 1, 1, 1, 1, 1, 1, 1, 3, 2, 2, 2, 1, 1, 3, 3, 3, 3, 3, 3, 4, 3, 3, 3, 2, 2, 4, 4, 3, 3, 2, 2, 3, 2, 2, 2, 2, 2, 5, 4, 3, 2, 2, 1, 5, 4, 3, 2, 1, 1, 2, 1, 1, 1, 1, 1, 3, 3, 3, 2, 2, 2, 5, 4, 4, 4, 3, 3, 2, 2, 2, 2, 2, 2, 4, 4, 4, 3, 3, 3, 5, 5, 5, 5, 5, 5, 4, 3, 3, 3, 3, 3, 1, 1, 1, 1, 1, 1, 1, 1, 1, 1, 1, 1, 4, 3, 3, 3, 2, 2, 4, 3, 3, 3, 3, 3, 4, 4, 4, 3, 3, 2, 2, 2, 2, 2, 2, 2, 4, 3, 3, 3, 3, 3, 5, 4, 4, 3, 3, 3, 4, 3, 3, 2, 2, 1, 4, 4, 4, 4, 4, 4, 3, 2, 2, 2, 2, 2, 2, 1, 1, 1, 1, 1, 4, 3, 3, 3, 3, 3, 4, 4, 4, 4, 4, 4, 5, 4, 4, 4, 4, 4, 3, 2, 2, 1, 1, 1, 5, 4, 4, 4, 4, 4, 5, 4, 4, 4, 3, 3, 2, 1, 1, 1, 1, 1, 4, 3, 3, 3, 2, 2, 2, 1, 1, 1, 1, 1, 5, 5, 5, 5, 5, 5, 3, 3, 3, 3, 3, 3, 3, 3, 2, 2, 2, 1, 4, 3, 3, 2, 1, 1, 5, 3, 3, 2, 2, 1, 5, 4, 4, 3, 2, 2, 2, 2, 2, 2, 2, 2, 3, 2, 2, 2, 1, 1, 3, 2, 2, 2, 2, 2, 2, 1, 1, 1, 1, 1, 2, 2, 2, 2, 2, 2, 5, 4, 3, 3, 2, 2, 4, 4, 4, 4, 3, 3, 3, 2, 2, 2, 2, 2, 5, 4, 3, 3, 2, 2, 2, 2, 2, 2, 2, 2, 2, 2, 2, 1, 1, 1, 5, 5, 5, 5, 5, 5, 4, 3, 2, 2, 2, 1, 4, 4, 3, 3, 3, 2, 4, 3, 3, 3, 3, 3, 3, 3, 3, 3, 3, 3, 1, 1, 1, 1, 1, 1, 3, 3, 3, 3, 3, 3, 4, 4, 4, 4, 4, 4, 3, 3, 3, 3, 3, 3, 5, 4, 4, 4, 4, 4, 5, 5, 5, 5, 5, 5, 3, 2, 2, 2, 2, 2, 5, 4, 4, 4, 3, 3, 5, 4, 4, 4, 3, 3, 4, 3, 3, 3, 3, 3, 1, 1, 1, 1, 1, 1, 4, 3, 3, 3, 3, 3, 4, 4, 4, 3, 3, 2, 1, 1, 1, 1, 1, 1, 3, 3, 3, 3, 3, 3, 3, 3, 3, 3, 3, 3, 3, 2, 2, 1, 1, 1, 3, 3, 2, 2, 2, 1, 4, 4, 4, 3, 2, 2, 1, 1, 1, 1, 1, 1, 5, 5, 5, 5, 5, 5, 5, 4, 3, 3, 2, 1, 2, 2, 2, 2, 2, 2, 3, 3, 3, 3, 3, 3
 |18, 16, 11, 9, 4, 1, 20, 18, 17, 17, 16, 15, 18, 16, 14, 12, 11, 10, 17, 16, 16, 14, 13, 13, 17, 15, 14, 14, 13, 11, 18, 17, 17, 17, 16, 16, 14, 14, 14, 13, 13, 13, 6, 5, 4, 4, 2, 1, 10, 9, 7, 6, 3, 2, 15, 15, 15, 15, 14, 14, 11, 10, 8, 7, 6, 4, 10, 9, 9, 9, 8, 8, 18, 18, 18, 18, 18, 18, 7, 7, 6, 5, 3, 2, 18, 14, 13, 11, 9, 8, 17, 17, 12, 10, 8, 4, 10, 10, 10, 10, 10, 10, 11, 11, 11, 11, 11, 11, 8, 7, 7, 7, 6, 5, 14, 11, 11, 9, 8, 5, 7, 7, 7, 7, 7, 7, 3, 3, 3, 3, 3, 3, 13, 10, 7, 6, 5, 2, 9, 9, 9, 9, 9, 9, 17, 16, 16, 16, 14, 14, 16, 15, 12, 10, 10, 8, 12, 12, 12, 12, 12, 12, 18, 18, 16, 15, 15, 13, 15, 12, 10, 7, 6, 3, 6, 6, 6, 6, 6, 6, 5, 4, 4, 3, 3, 2, 18, 18, 16, 15, 15, 13, 8, 8, 8, 7, 7, 7, 17, 16, 14, 14, 13, 12, 9, 9, 9, 9, 8, 8, 17, 15, 10, 8, 6, 3, 17, 12, 10, 9, 4, 3, 19, 16, 15, 11, 10, 6, 18, 17, 16, 16, 15, 14, 12, 9, 9, 7, 6, 6, 14, 12, 9, 6, 5, 2, 12, 11, 10, 10, 10, 9, 19, 18, 17, 15, 14, 14, 14, 13, 11, 10, 9, 7, 19, 16, 16, 15, 13, 10, 15, 12, 9, 8, 6, 3, 16, 13, 13, 9, 7, 7, 17, 16, 16, 16, 15, 15, 13, 12, 12, 11, 10, 9, 13, 12, 12, 11, 11, 11, 20, 20, 20, 20, 20, 20, 11, 9, 8, 8, 7, 5, 13, 12, 12, 12, 12, 12, 19, 15, 13, 11, 10, 8, 17, 16, 16, 16, 16, 16, 7, 7, 7, 7, 7, 7, 13, 13, 9, 7, 6, 5, 3, 3, 3, 3, 3, 3, 9, 8, 8, 8, 8, 8, 17, 13, 13, 10, 7, 4, 6, 4, 3, 2, 2, 1, 11, 10, 7, 6, 5, 3, 17, 17, 17, 16, 16, 16, 13, 12, 9, 5, 3, 2, 11, 8, 6, 4, 4, 1, 13, 11, 8, 8, 4, 2, 19, 18, 18, 17, 17, 17, 19, 14, 12, 11, 5, 5, 9, 9, 9, 9, 8, 8, 17, 17, 17, 16, 16, 16, 10, 8, 7, 7, 6, 4, 8, 8, 7, 7, 7, 6, 10, 10, 10, 10, 10, 10, 6, 6, 6, 5, 5, 5, 2, 2, 2, 1, 1, 1, 20, 17, 17, 14, 12, 12, 16, 15, 13, 12, 12, 10, 17, 16, 15, 13, 11, 10, 14, 14, 12, 10, 9, 8, 13, 12, 11, 11, 11, 10, 8, 8, 8, 8, 8, 8, 14, 13, 12, 12, 10, 10, 13, 13, 13, 12, 11, 11, 14, 12, 12, 11, 10, 10, 12, 11, 10, 9, 8, 8, 12, 10, 8, 7, 6, 3, 13, 11, 11, 10, 8, 8, 9, 8, 8, 8, 7, 7, 7, 5, 5, 3, 3, 2, 7, 6, 6, 5, 4, 4, 19, 19, 19, 18, 17, 17, 18, 14, 12, 10, 8, 7, 8, 7, 7, 6, 4, 3, 9, 8, 6, 6, 5, 4, 18, 18, 18, 18, 18, 18, 14, 10, 7, 6, 5, 1, 12, 12, 12, 12, 12, 12, 4, 3, 3, 3, 2, 2, 10, 9, 9, 8, 7, 7, 16, 14, 14, 13, 11, 10
 |16, 16, 15, 13, 13, 11, 14, 13, 13, 12, 12, 12, 17, 17, 13, 13, 10, 7, 10, 8, 6, 5, 5, 4, 12, 11, 9, 8, 7, 5, 15, 15, 14, 12, 11, 11, 17, 16, 10, 7, 4, 3, 15, 14, 14, 13, 13, 13, 12, 10, 8, 7, 5, 3, 13, 11, 7, 5, 4, 3, 10, 8, 8, 6, 6, 5, 19, 18, 17, 16, 16, 15, 14, 11, 9, 6, 5, 1, 10, 8, 7, 6, 5, 3, 4, 4, 4, 3, 2, 2, 13, 11, 10, 9, 5, 3, 15, 12, 11, 9, 7, 2, 19, 18, 17, 16, 15, 15, 17, 15, 14, 11, 11, 8, 14, 13, 12, 10, 9, 7, 8, 7, 6, 5, 3, 2, 12, 12, 10, 9, 9, 8, 10, 10, 10, 10, 9, 9, 9, 8, 7, 6, 5, 4, 7, 7, 5, 5, 3, 1, 13, 9, 8, 8, 5, 3, 6, 4, 3, 4, 2, 1, 18, 17, 18, 18, 17, 18, 18, 14, 13, 12, 8, 6, 15, 15, 14, 12, 11, 10, 12, 11, 10, 11, 10, 11, 13, 12, 12, 12, 11, 12, 10, 9, 9, 9, 8, 7, 20, 19, 19, 18, 18, 18, 17, 15, 13, 12, 10, 9, 6, 5, 5, 5, 4, 4, 10, 9, 9, 6, 5, 4, 3, 3, 3, 2, 2, 2, 15, 13, 12, 11, 10, 9, 6, 5, 4, 4, 2, 1, 20, 15, 12, 7, 7, 4, 15, 13, 9, 9, 4, 1, 12, 11, 10, 10, 9, 8, 9, 7, 7, 7, 6, 5, 7, 6, 5, 3, 2, 1, 9, 7, 5, 4, 2, 2, 18, 13, 11, 9, 7, 6, 14, 13, 12, 11, 10, 9, 7, 6, 5, 5, 5, 4, 15, 15, 14, 15, 14, 13, 15, 12, 10, 8, 6, 2, 5, 5, 4, 3, 2, 2, 13, 11, 9, 8, 3, 2, 20, 17, 14, 12, 8, 6, 17, 17, 14, 13, 11, 10, 19, 18, 18, 17, 16, 16, 11, 10, 10, 9, 8, 8, 13, 13, 12, 12, 13, 12, 18, 17, 13, 11, 5, 4, 13, 11, 8, 6, 3, 3, 8, 8, 7, 6, 5, 5, 9, 7, 6, 5, 3, 2, 17, 15, 14, 14, 13, 12, 18, 15, 14, 10, 7, 5, 15, 12, 8, 5, 3, 3, 13, 13, 12, 11, 10, 9, 15, 14, 12, 10, 9, 8, 13, 11, 9, 5, 3, 2, 13, 13, 11, 7, 5, 4, 14, 13, 12, 12, 11, 10, 3, 3, 3, 3, 3, 3, 16, 14, 13, 12, 9, 6, 13, 13, 13, 12, 11, 13, 16, 14, 12, 10, 7, 5, 17, 14, 11, 9, 7, 5, 16, 16, 15, 15, 14, 13, 11, 10, 9, 9, 7, 6, 7, 6, 5, 3, 3, 1, 11, 11, 9, 9, 8, 6, 18, 18, 18, 17, 16, 16, 20, 19, 18, 16, 15, 14, 9, 8, 7, 6, 5, 4, 18, 17, 16, 15, 13, 12, 20, 18, 16, 15, 14, 13, 12, 11, 8, 7, 3, 2, 15, 12, 12, 6, 5, 2, 13, 13, 12, 12, 11, 11, 17, 12, 10, 9, 6, 3, 18, 17, 16, 15, 14, 14, 19, 18, 17, 18, 17, 16, 17, 16, 15, 14, 13, 11, 15, 15, 15, 14, 14, 14, 18, 18, 17, 16, 15, 15, 15, 13, 12, 12, 11, 9, 16, 13, 11, 10, 9, 6, 17, 17, 16, 14, 11, 10, 10, 9, 7, 6, 5, 4, 17, 16, 15, 14, 13, 13, 9, 9, 8, 8, 7, 6, 3, 2, 2, 2, 2, 2|];